8460590071669692194509,8,1,2,09,9,1,2,014,9,1,2,013,15,1,2,013,14,1,2,06,14,1,2,03,12,1,2,010,6,1,2,013,3,1,2,015,12,1,2,08,10,1,2,05,6,1,2,015,14,1,2,01,4,1,2,07,15,1,2,013,8,1,2,012,1,1,2,015,13,1,2,06,1,1,2,014,11,1,2,011,4,1,2,014,8,1,2,01,4,1,2,014,14,1,2,014,15,1,2,09,9,1,2,011,15,1,2,013,14,1,2,012,15,1,2,014,3,1,2,01,5,1,2,08,14,1,2,011,1,1,2,01,7,1,2,05,2,1,2,04,11,1,2,03,10,1,2,06,9,1,2,011,12,1,2,011,12,1,2,02,3,1,2,09,5,1,2,07,13,1,2,07,10,1,2,014,8,1,2,010,3,1,2,010,6,1,2,07,7,1,2,01,1,1,2,09,15,1,2,0